========================================================== 
File name: C:\DEGR\assets\definitions\MSRCPSP_Gen\200_10_64_10_B.def
Creation date: Wed May 03 10:47:09 CEST 2023
Website: http://imopse.ii.pwr.edu.pl/ 
Reference: 
Myszkowski P. B., Skowronski M. E., Olech L., Oslizlo K., 
Hybrid Ant Colony Optimization in solving Multi-Skill Resource-Constrained Project Scheduling Problem, 
Soft Computing, DOI: DOI 10.1007/s00500-014-1455-x 
========================================================== 
General characteristics: 
Tasks: 200
Resources: 10
Precedence relations: 63
Number of skill types: 10
========================================================== 
ResourceID 	 Salary 	 Skills 
1	 	 	63.0	 	 Q7: 1 	 
2	 	 	86.1	 	 Q9: 3 	  Q1: 0 	  Q4: 3 	  Q8: 3 	 
3	 	 	98.9	 	 Q3: 1 	  Q5: 3 	  Q0: 2 	  Q1: 0 	  Q6: 0 	  Q2: 0 	 
4	 	 	90.9	 	 Q2: 2 	 
5	 	 	78.3	 	 Q7: 1 	  Q9: 3 	  Q3: 3 	  Q2: 3 	  Q0: 3 	  Q1: 3 	  Q8: 1 	  Q5: 2 	 
6	 	 	64.5	 	 Q9: 1 	  Q0: 1 	  Q4: 2 	 
7	 	 	41.2	 	 Q3: 2 	  Q7: 1 	  Q0: 3 	  Q6: 3 	  Q9: 1 	  Q5: 0 	 
8	 	 	53.3	 	 Q8: 0 	 
9	 	 	15.4	 	 Q4: 1 	  Q1: 3 	  Q7: 0 	  Q0: 2 	 
10	 	 	81.3	 	 Q6: 0 	  Q0: 2 	  Q7: 2 	  Q2: 2 	  Q5: 1 	 
========================================================== 
TaskID 	 Duration 	 Skill 	 Predecessor IDs 
1	34	Q1:	0
2	36	Q7:	2
3	39	Q3:	2
4	39	Q9:	1
5	35	Q4:	3
6	40	Q0:	2
7	22	Q7:	0
8	29	Q4:	3
9	37	Q1:	3
10	27	Q0:	1
11	33	Q5:	2
12	21	Q3:	3
13	17	Q3:	2
14	30	Q7:	1
15	15	Q2:	2
16	28	Q8:	1
17	29	Q8:	3
18	36	Q5:	1
19	19	Q7:	2
20	26	Q8:	0
21	35	Q1:	0
22	29	Q8:	3
23	12	Q5:	3
24	28	Q0:	3
25	23	Q7:	1
26	33	Q6:	0
27	28	Q8:	3
28	20	Q2:	3
29	29	Q9:	1
30	30	Q4:	3
31	17	Q8:	0
32	18	Q8:	0
33	10	Q6:	3
34	20	Q8:	0
35	35	Q6:	3	34	25
36	40	Q1:	3
37	29	Q3:	2
38	17	Q8:	1	22
39	18	Q9:	1
40	23	Q9:	3
41	26	Q5:	2
42	19	Q3:	1
43	31	Q2:	3
44	23	Q8:	0
45	26	Q0:	1
46	18	Q5:	3
47	20	Q5:	2
48	17	Q5:	2	18
49	24	Q5:	1	34
50	22	Q6:	3
51	16	Q3:	1	39
52	15	Q5:	1
53	22	Q2:	2
54	11	Q5:	2
55	24	Q9:	1	32
56	35	Q5:	2
57	17	Q8:	0
58	20	Q1:	0
59	23	Q1:	3
60	36	Q1:	0
61	10	Q4:	1
62	33	Q2:	3
63	35	Q2:	0
64	17	Q0:	2
65	37	Q0:	3
66	32	Q7:	2
67	29	Q3:	3	36
68	21	Q3:	3
69	24	Q3:	2
70	33	Q9:	3
71	35	Q7:	1
72	26	Q8:	3
73	38	Q2:	2	6
74	16	Q8:	1
75	29	Q8:	1
76	24	Q7:	0
77	9	Q3:	2
78	31	Q4:	2	12
79	40	Q3:	1
80	24	Q4:	2
81	26	Q1:	3	36
82	21	Q5:	0
83	14	Q6:	0
84	31	Q6:	0
85	34	Q4:	1
86	9	Q9:	1
87	28	Q3:	3
88	9	Q8:	1	38
89	33	Q6:	0
90	20	Q0:	1	75
91	27	Q5:	0
92	30	Q5:	1
93	14	Q3:	3
94	39	Q9:	1
95	40	Q5:	3
96	31	Q8:	0
97	15	Q5:	0	54
98	25	Q5:	2
99	12	Q1:	3	44	75
100	35	Q2:	3
101	31	Q7:	0
102	36	Q5:	2
103	39	Q9:	3	29
104	20	Q3:	2
105	11	Q5:	2
106	10	Q3:	2
107	30	Q3:	3
108	9	Q7:	0
109	33	Q6:	0
110	13	Q3:	2
111	20	Q5:	1
112	20	Q6:	3	94	10
113	21	Q0:	3	91
114	22	Q4:	2
115	38	Q3:	1
116	12	Q8:	1
117	8	Q0:	3	31
118	10	Q6:	3
119	10	Q0:	2
120	16	Q0:	2	35
121	15	Q1:	0
122	13	Q8:	1
123	9	Q3:	1	105	91
124	15	Q8:	1
125	22	Q7:	0
126	38	Q2:	0
127	40	Q6:	0	3
128	27	Q3:	2
129	27	Q4:	2
130	19	Q6:	3	125
131	15	Q4:	3
132	30	Q5:	2
133	11	Q7:	1
134	14	Q8:	0
135	35	Q3:	1	36
136	39	Q4:	1
137	35	Q1:	0
138	22	Q4:	3
139	21	Q7:	2	48
140	34	Q4:	1	73	59
141	35	Q7:	1
142	35	Q6:	3
143	38	Q6:	0
144	9	Q3:	3	130
145	38	Q2:	3	40
146	23	Q4:	1
147	38	Q7:	0
148	13	Q0:	3
149	20	Q5:	1
150	12	Q4:	1
151	37	Q2:	2
152	32	Q4:	2
153	11	Q7:	2	17
154	35	Q5:	3
155	33	Q3:	1	86
156	9	Q8:	0
157	27	Q4:	1
158	38	Q2:	0
159	35	Q7:	1	113
160	29	Q6:	3	159
161	12	Q5:	3	42
162	12	Q6:	3
163	24	Q2:	0	105
164	10	Q9:	1	81
165	40	Q0:	1	76
166	35	Q1:	0	56
167	10	Q9:	1
168	14	Q5:	0	84
169	12	Q8:	0	148
170	22	Q6:	3
171	30	Q2:	2	58
172	31	Q7:	1
173	32	Q4:	2	14
174	12	Q5:	2
175	39	Q8:	1
176	17	Q8:	1	41
177	11	Q0:	1
178	37	Q2:	3
179	37	Q6:	3	76
180	16	Q5:	0
181	27	Q1:	0	117	116
182	35	Q7:	1
183	12	Q2:	0
184	26	Q3:	3	42	64
185	20	Q5:	0
186	24	Q2:	2	87	159	59
187	15	Q5:	1
188	36	Q4:	3	71
189	28	Q9:	1	11
190	11	Q1:	3	7
191	11	Q3:	3	130	164
192	12	Q0:	3
193	17	Q7:	0	115
194	31	Q0:	3
195	39	Q3:	2
196	33	Q7:	1	63
197	25	Q2:	3	163
198	36	Q5:	1
199	14	Q3:	3
200	28	Q0:	2	111
========================================================== 